p cnf 8 29 
c Factors encoded in variables 1-5 and 6-8
c Target number: 95
c Factors: 19 x 5
-5 -4 3 -8 -7 0
3 2 0
4 3 2 0
-5 4 -3 -8 0
-2 -7 0
2 3 4 5 0
4 -3 -2 0
5 -4 -3 -2 -7 0
1 0
-5 -3 -8 7 0
-4 3 -8 0
4 -3 -2 -8 -7 0
-4 -8 7 0
5 -4 8 0
-3 -8 0
4 -8 -7 0
5 4 0
-4 -3 8 -7 0
4 3 8 -7 0
-5 -4 3 -7 0
2 7 0
-5 -8 -7 0
4 8 7 0
3 8 0
-5 8 7 0
4 -7 0
6 0
7 8 0
5 -4 7 0
